
  22   10
  10   10   10   10   10   10   10   10   10   10

   0   0   0   0   0   0   0   0   0   0   0   1 2 
   3   0   0   0   0   0   0   0   0  10   0   1 3 
   4   0   0   0   0   0   0  10   0   0   0   1 4 
   3   0   0   0   0   0   0   0  10   0   0   1 5 
   9   0   0   0   0   0   0   0  10   0   0   1 6 
   9   0   0   0   0   0   0  10   0   0   0   1 7 
   3   0  10   0   0   0   0   0   0   0   0   2 20 8 
   6   0   0   0   0  10   0   0   0   0   0   2 19 9 
   8  10   0   0   0   0   0   0   0   0   0   1 10 
   6   0   0  10   0   0   0   0   0   0   0   1 11 
   8   0   0   0   0   0  10   0   0   0   0   1 12 
   2   0   0   0   0   0  10   0   0   0   0   1 13 
   6   0   0   0   0  10   0   0   0   0   0   1 14 
   2   0   0   0   0   0   0   0  10   0   0   1 15 
   5   0   0  10   0   0   0   0   0   0   0   1 16 
   4   0   0   0   0  10   0   0   0   0   0   1 17 
   7   0   0   0  10   0   0   0   0   0   0   1 18 
  10   0   0   0   0   0   0   0   0  10   0   1 21 
   8   0   0   0   0   0   0  10   0   0   0   1 21 
   3   0   0   0   0   0   0   0   0   0  10   1 21 
   8   0   0   0   0   0   0   0   0  10   0   1 22
   0   0   0   0   0   0   0   0   0   0   0   0 
